nApps = 210
nRes = 9
nActs = 416
nNetworks = 6

assignmentToResources = [1,1,3,2,3,2,3,2,1,1,1,2,1,2,3,3,2,3,1,3,2,3,3,1,2,1,2,1,3,3,2,2,3,1,1,1,3,2,2,1,1,2,2,2,1,2,2,1,2,1,2,1,2,1,1,1,2,2,2,1,2,2,3,2,1,1,2,2,1,3,3,3,1,1,1,3,1,3,3,1,1,2,1,3,2,1,3,1,1,1,3,3,2,2,2,2,2,2,3,3,4,4,4,4,4,4,4,6,6,6,5,5,6,6,6,5,4,4,4,4,4,4,4,5,4,4,5,5,5,5,6,6,5,6,6,6,6,4,4,6,6,6,6,6,5,5,6,6,6,6,5,4,6,6,5,6,4,4,4,4,4,6,5,4,5,5,4,4,5,5,5,5,5,4,5,5,5,5,4,4,4,4,4,4,5,5,5,5,4,5,5,5,6,5,5,4,4,4,4,4,5,4,6,4,4,6,6,6,4,4,4,6,6,6,6,4,4,4,4,4,4,4,4,6,4,4,4,6,6,6,6,5,5,6,6,6,6,6,6,5,7,5,9,4,8,6,8,6,8,4,9,5,7,5,9,6,7,5,9,5,7,5,9,4,8,4,9,5,9,6,8,6,8,6,8,6,7,9,9,9,8,8,9,9,7,8,7,7,9,7,8,7,7,9,8,8,8,8,8,8,7,9,8,7,7,9,7,7,8,9,8,8,7,8,8,8,7,7,7,8,7,7,7,8,7,8,8,7,9,7,7,7,8,8,9,9,9,9,7,7,9,7,9,9,8,7,7,9,7,7,8,9,7,7,7,9,9,9,8,9,9,7,9,7,7,8,7,7,7,7,9,9,8,9,8,8,8,9,8,7,8,9,8,7,8,9,8,8,7,7,7,7,8,9,8,8,9,9,8,8,7,8,9,9,8,7,7,8,7,7,7,8,7,8,7,7];

processingTimes = [136,96,80,136,72,136,136,96,80,168,104,128,120,56,136,112,104,136,80,104,104,144,160,48,96,144,80,168,136,72,128,120,136,120,136,112,56,104,104,128,136,120,120,160,96,80,40,120,128,112,136,120,136,136,128,72,160,112,136,88,120,152,72,128,160,128,120,136,96,128,120,80,128,48,136,136,72,136,88,72,136,152,128,128,88,136,120,64,40,152,80,136,112,128,56,48,56,112,112,136,500,4,3,500,8,500,3,500,3,500,4,3,4,4,4,13,3,8,8,4,3,8,4,3,3,500,13,13,3,500,500,13,5,3,5,4,4,3,3,3,3,4,4,4,3,4,3,8,8,3,4,500,4,500,4,8,3,500,3,3,3,13,3,500,3,4,3,500,4,4,3,3,4,4,4,7,3,500,8,5,5,500,3,3,500,4,3,3,3,3,500,13,4,4,3,500,23,8,500,3,500,500,3,4,5,4,8,8,3,4,4,500,13,13,4,3,3,4,500,3,4,3,3,5,4,3,3,500,500,4,8,3,3,500,3,3,500,4,500,8,8,500,500,500,500,500,500,500,500,500,500,500,500,500,500,500,500,3,3,4,4,3,3,3,3,4,4,3,3,3,3,4,4,3,3,4,4,500,4,3,500,8,500,3,500,3,500,4,3,4,4,4,13,3,8,8,4,3,8,4,3,3,500,13,13,3,500,500,13,5,3,5,4,4,3,3,3,3,4,4,4,3,4,3,8,8,3,4,500,4,500,4,8,3,500,3,3,3,13,3,500,3,4,3,500,4,4,3,3,4,4,4,7,3,500,8,5,5,500,3,3,500,4,3,3,3,3,500,13,4,4,3,500,23,8,500,3,500,500,3,4,5,4,8,8,3,4,4,500,13,13,4,3,3,4,500,3,4,3,3,5,4,3,3,500,500,4,8,3,3,500,3,3,500,4,500];

periods = [20000,20000,10000,100000,20000,100000,20000,20000,20000,10000,50000,20000,20000,100000,20000,10000,20000,10000,20000,100000,20000,20000,20000,20000,20000,20000,10000,10000,10000,20000,100000,10000,1000,100000,100000,20000,100000,50000,20000,10000,10000,2000,100000,100000,20000,100000,100000,100000,10000,100000,10000,20000,10000,100000,10000,1000,50000,20000,20000,20000,100000,20000,10000,1000,100000,10000,100000,100000,20000,10000,100000,20000,10000,20000,20000,20000,20000,100000,20000,50000,100000,10000,10000,20000,100000,20000,20000,20000,50000,1000,10000,1000,20000,5000,10000,100000,10000,1000,10000,5000,20000,20000,20000,20000,20000,20000,20000,10000,10000,10000,100000,100000,20000,20000,20000,20000,20000,20000,20000,20000,10000,50000,50000,20000,20000,20000,100000,100000,100000,100000,20000,10000,20000,10000,10000,10000,10000,20000,20000,100000,100000,100000,100000,100000,20000,20000,20000,20000,20000,20000,20000,10000,20000,20000,10000,1000,100000,100000,100000,20000,20000,100000,20000,10000,2000,2000,20000,20000,100000,100000,100000,100000,100000,100000,10000,10000,10000,10000,20000,20000,100000,10000,10000,1000,50000,20000,20000,20000,20000,100000,100000,20000,10000,1000,1000,100000,10000,10000,10000,10000,100000,20000,10000,20000,20000,20000,20000,20000,20000,20000,20000,100000,100000,100000,20000,50000,50000,100000,100000,10000,10000,20000,20000,20000,50000,1000,1000,10000,10000,10000,1000,5000,5000,10000,10000,10000,5000,5000,5000,20000,20000,10000,10000,10000,10000,10000,10000,10000,10000,10000,10000,10000,10000,10000,10000,10000,10000,100000,100000,100000,100000,10000,10000,10000,10000,10000,10000,10000,10000,10000,10000,10000,10000,10000,10000,20000,20000,20000,20000,20000,20000,20000,20000,20000,10000,10000,10000,100000,100000,20000,20000,20000,20000,20000,20000,20000,20000,10000,50000,50000,20000,20000,20000,100000,100000,100000,100000,20000,10000,20000,10000,10000,10000,10000,20000,20000,100000,100000,100000,100000,100000,20000,20000,20000,20000,20000,20000,20000,10000,20000,20000,10000,1000,100000,100000,100000,20000,20000,100000,20000,10000,2000,2000,20000,20000,100000,100000,100000,100000,100000,100000,10000,10000,10000,10000,20000,20000,100000,10000,10000,1000,50000,20000,20000,20000,20000,100000,100000,20000,10000,1000,1000,100000,10000,10000,10000,10000,100000,20000,10000,20000,20000,20000,20000,20000,20000,20000,20000,100000,100000,100000,20000,50000,50000,100000,100000,10000,10000,20000,20000,20000,50000,1000,1000,10000,10000,10000,1000,5000,5000,10000,10000,10000,5000,5000,5000];

assignmentToClusters = [1,2,3,4,5,6,7,8,9,3,10,11,12,4,13,14,15,3,16,17,1,18,19,20,21,22,23,3,3,24,4,3,25,26,4,27,4,28,29,30,3,31,4,4,32,4,4,33,3,34,14,35,3,36,37,38,39,40,41,19,42,43,3,44,45,46,4,4,47,14,48,49,14,50,51,52,53,54,55,56,57,14,14,58,4,59,60,61,62,63,64,65,66,67,68,69,14,70,3,71,72,73,74,75,76,77,78,79,80,81,82,83,84,85,86,87,88,89,90,91,92,93,94,95,96,97,98,99,100,101,102,103,104,105,106,107,108,109,110,111,112,113,114,115,116,117,118,119,120,121,122,123,124,125,126,127,128,129,130,131,132,133,134,135,136,137,138,139,140,141,142,143,144,145,146,147,148,149,150,151,152,153,154,155,156,157,158,159,160,161,162,163,164,165,166,167,168,169,170,171,172,173,174,175,176,177,178,179,180,181,182,183,184,185,186,187,188,189,190,191,192,193,194,195,196,197,198,199,200,201,202,203,204,205,206,207,208,209,210,1,1,3,3,3,3,3,3,3,3,3,3,3,3,3,3,3,3,4,4,4,4,14,14,14,14,14,14,14,14,14,14,14,14,14,14,19,19,72,73,74,75,76,77,78,79,80,81,82,83,84,85,86,87,88,89,90,91,92,93,94,95,96,97,98,99,100,101,102,103,104,105,106,107,108,109,110,111,112,113,114,115,116,117,118,119,120,121,122,123,124,125,126,127,128,129,130,131,132,133,134,135,136,137,138,139,140,141,142,143,144,145,146,147,148,149,150,151,152,153,154,155,156,157,158,159,160,161,162,163,164,165,166,167,168,169,170,171,172,173,174,175,176,177,178,179,180,181,182,183,184,185,186,187,188,189,190,191,192,193,194,195,196,197,198,199,200,201,202,203,204,205,206,207,208,209,210];

precedenceAdjList = [[240],[],[242],[42],[],[],[],[],[],[252],[],[],[],[],[],[262],[],[],[],[],[],[],[],[],[],[],[],[],[2],[],[3],[],[],[],[260],[],[258],[],[],[],[256],[],[45,67],[13],[],[43],[66,30],[],[244],[],[274],[],[246,248],[],[],[],[],[],[],[276],[],[],[17,254],[],[],[],[],[],[],[266,268],[],[],[],[],[],[],[],[],[],[],[],[264],[],[],[46],[],[],[],[],[],[],[],[],[],[],[],[270,272],[],[250],[],[],[],[],[],[],[],[],[],[],[],[],[],[],[],[],[],[],[],[],[],[],[],[],[],[],[],[],[],[],[],[],[],[],[],[],[],[],[],[],[],[],[],[],[],[],[],[],[],[],[],[],[],[],[],[],[],[],[],[],[],[],[],[],[],[],[],[],[],[],[],[],[],[],[],[],[],[],[],[],[],[],[],[],[],[],[],[],[],[],[],[],[],[],[],[],[],[],[],[],[],[],[],[],[],[],[],[],[],[],[],[],[],[],[],[],[],[],[],[],[],[],[],[],[],[],[],[],[],[],[],[],[],[],[],[],[],[],[],[],[20],[239],[48],[241],[27],[243],[28],[245],[98],[247],[9],[249],[31],[251],[52],[253],[62],[255],[84],[257],[30],[259],[81],[261],[72],[263],[82],[265],[81],[267],[69],[269],[15],[271],[69],[273],[22],[275],[100],[101],[102],[103],[104],[105],[106],[107],[108],[109],[110],[111],[112],[113],[114],[115],[116],[117],[118],[119],[120],[121],[122],[123],[124],[125],[126],[127],[128],[129],[130],[131],[132],[133],[134],[135],[136],[137],[138],[139],[140],[141],[142],[143],[144],[145],[146],[147],[148],[149],[150],[151],[152],[153],[154],[155],[156],[157],[158],[159],[160],[161],[162],[163],[164],[165],[166],[167],[168],[169],[170],[171],[172],[173],[174],[175],[176],[177],[178],[179],[180],[181],[182],[183],[184],[185],[186],[187],[188],[189],[190],[191],[192],[193],[194],[195],[196],[197],[198],[199],[200],[201],[202],[203],[204],[205],[206],[207],[208],[209],[210],[211],[212],[213],[214],[215],[216],[217],[218],[219],[220],[221],[222],[223],[224],[225],[226],[227],[228],[229],[230],[231],[232],[233],[234],[235],[236],[237],[238]];